coords = array2d(1..26, 1..2, [462, 378, 908, 395, 266, 938, 342, 844, 524, 75,
    636, 426, 181, 285, 15, 389, 567, 438, 999, 75, 245, 932, 624,
    844, 908, 770, 589, 143, 170, 272, 71, 69, 115, 124, 917, 927,
    679, 293, 41, 732, 440, 540, 399, 355, 130, 513, 490, 18, 20, 596,
    322, 816]);

n = 26;

